# Solution for model GasLib-40
# Objective value = 7.0283712193731162e+01
loadshed[innode_1] 0
loadshed[innode_2] 0
loadshed[innode_3] 0
loadshed[innode_4] 0
loadshed[innode_5] 0
loadshed[innode_6] 0
loadshed[innode_7] 0
loadshed[innode_8] 0
loadshed[source_1] -7.3408843424553449e-02
loadshed[source_2] 2.5957539878592961e-01
loadshed[source_3] 2.5841304296474088e-01
loadshed[sink_1] 1
loadshed[sink_2] 0
loadshed[sink_3] 0
loadshed[sink_4] 0
loadshed[sink_5] 0
loadshed[sink_6] 0
loadshed[sink_7] 0
loadshed[sink_8] 0
loadshed[sink_9] 0
loadshed[sink_10] 0
loadshed[sink_11] 0
loadshed[sink_12] 1
loadshed[sink_13] 0
loadshed[sink_14] 0
loadshed[sink_15] 0
loadshed[sink_16] 0
loadshed[sink_17] 0
loadshed[sink_18] 0
loadshed[sink_19] 0
loadshed[sink_20] 0
loadshed[sink_21] 1
loadshed[sink_22] 3.2528534467180725e-01
loadshed[sink_23] 0
loadshed[sink_24] 9.7231743914869717e-01
loadshed[sink_25] 0
loadshed[sink_26] 0
loadshed[sink_27] 0
loadshed[sink_28] 0
loadshed[sink_29] 0
flow[source_1,sink_3] 1.6969550222611082e+02
flow[innode_1,sink_16] 1.6354166666666970e+01
flow[innode_6,sink_13] -2.7585213674140761e+00
flow[sink_13,sink_14] -1.9112688034080744e+01
flow[sink_14,sink_10] -3.5466854700747412e+01
flow[sink_25,sink_26] 0
flow[sink_26,sink_9] 4.7830161504900673e+01
flow[sink_9,sink_18] 3.1475994838234005e+01
flow[sink_26,sink_4] -6.4184328171567358e+01
flow[sink_4,sink_20] 0
flow[sink_18,sink_6] 1.5121828171567337e+01
flow[sink_25,innode_8] -1.3698716889277446e+02
flow[sink_6,sink_7] -1.2266734420779144e+01
flow[sink_6,sink_22] 1.1034395925679821e+01
flow[sink_7,sink_24] 4.5272521392235121e-01
flow[sink_22,sink_1] 0
flow[sink_24,sink_21] 0
flow[sink_21,sink_12] 0
flow[sink_7,sink_5] -2.9073626301368162e+01
flow[sink_5,sink_17] -4.5427792968034822e+01
flow[sink_17,sink_4] 8.0538494838234030e+01
flow[sink_17,sink_8] -1.4232045447293544e+02
flow[sink_3,sink_23] 16.3541666666697
flow[sink_8,sink_20] -1.5867462113960210e+02
flow[sink_25,sink_20] 1.7502878780626884e+02
flow[sink_25,sink_15] -5.1637264212747894e+01
flow[sink_15,sink_29] -8.4345597546098816e+01
flow[sink_29,sink_28] 1.6354166666667879e+01
flow[sink_29,sink_2] 0
flow[sink_2,sink_15] -1.6354166666684250e+01
flow[sink_29,innode_7] -1.1705393087943273e+02
flow[innode_4,sink_19] 4.5364996369286679e+01
flow[sink_19,innode_3] 4.1249968295753057e+01
flow[innode_4,innode_5] 7.1872691664794374e+01
flow[sink_27,innode_5] -7.1872691664794374e+01
flow[sink_27,sink_19] 5.5518524998127710e+01
flow[sink_10,sink_11] 3.2708333333333641e+01
flow[sink_10,innode_2] -4.3279386404994661e+01
flow[sink_10,innode_3] -4.1249968295753057e+01
flow[innode_6,sink_25] 2.7585213674140761e+00
flow[sink_11,innode_1] 1.6354166666666970e+01
flow[sink_19,innode_2] 4.3279386404994661e+01
flow[source_3,innode_4] 1.1723768803408106e+02
flow[source_2,innode_7] 1.1705393087943273e+02
flow[sink_3,innode_8] 1.3698716889277446e+02
pressure[innode_1] 7.6736202777582974e+01
pressure[innode_2] 7.9175398406410636e+01
pressure[innode_3] 7.9084055022671890e+01
pressure[innode_4] 81.01325
pressure[innode_5] 8.0963812172814187e+01
pressure[innode_6] 7.5160960607898446e+01
pressure[innode_7] 81.01325
pressure[innode_8] 8.0446022762089640e+01
pressure[source_1] 81.01325
pressure[source_2] 81.01325
pressure[source_3] 81.01325
pressure[sink_1] 1.0132500000000002e+00
pressure[sink_2] 7.5358058906041549e+01
pressure[sink_3] 8.0446022762089640e+01
pressure[sink_4] 1.3929206968872238e+01
pressure[sink_5] 1.3623080459512115e+01
pressure[sink_6] 1.3631936127387327e+00
pressure[sink_7] 1.5315866368666031e+00
pressure[sink_8] 2.2377243160824424e+01
pressure[sink_9] 2.9058867563651285e+00
pressure[sink_10] 7.6887904085186520e+01
pressure[sink_11] 7.6736202777582974e+01
pressure[sink_12] 1.01325
pressure[sink_13] 7.5176167875205252e+01
pressure[sink_14] 7.5210371658483282e+01
pressure[sink_15] 75.411451655808
pressure[sink_16] 75.7145529427653
pressure[sink_17] 1.7007122674111866e+01
pressure[sink_18] 1.7669914485188998e+00
pressure[sink_19] 7.9175398406410636e+01
pressure[sink_20] 3.3434632770050179e+01
pressure[sink_21] 1.01325
pressure[sink_22] 1.01325
pressure[sink_23] 8.0281304750429854e+01
pressure[sink_24] 1.01325
pressure[sink_25] 7.5160960607898446e+01
pressure[sink_26] 5.76864536868213
pressure[sink_27] 80.3674016384507
pressure[sink_28] 7.7587233633605379e+01
pressure[sink_29] 7.7882515907222555e+01
interdiction[source_1,sink_3] 0
interdiction[innode_1,sink_16] 0
interdiction[innode_6,sink_13] 0
interdiction[sink_13,sink_14] 0
interdiction[sink_14,sink_10] 0
interdiction[sink_25,sink_26] 1
interdiction[sink_26,sink_9] 0
interdiction[sink_9,sink_18] 0
interdiction[sink_26,sink_4] 0
interdiction[sink_4,sink_20] 1
interdiction[sink_18,sink_6] 0
interdiction[sink_25,innode_8] 0
interdiction[sink_6,sink_7] 0
interdiction[sink_6,sink_22] 0
interdiction[sink_7,sink_24] 0
interdiction[sink_22,sink_1] 0
interdiction[sink_24,sink_21] 0
interdiction[sink_21,sink_12] 0
interdiction[sink_7,sink_5] 0
interdiction[sink_5,sink_17] 0
interdiction[sink_17,sink_4] 0
interdiction[sink_17,sink_8] 0
interdiction[sink_3,sink_23] 0
interdiction[sink_8,sink_20] 0
interdiction[sink_25,sink_20] 0
interdiction[sink_25,sink_15] 0
interdiction[sink_15,sink_29] 0
interdiction[sink_29,sink_28] 0
interdiction[sink_29,sink_2] 1
interdiction[sink_2,sink_15] 0
interdiction[sink_29,innode_7] 0
interdiction[innode_4,sink_19] 0
interdiction[sink_19,innode_3] 0
interdiction[innode_4,innode_5] 0
interdiction[sink_27,innode_5] 0
interdiction[sink_27,sink_19] 0
interdiction[sink_10,sink_11] 0
interdiction[sink_10,innode_2] 0
interdiction[sink_10,innode_3] 0
interdiction[innode_6,sink_25] 0
interdiction[sink_11,innode_1] 0
interdiction[sink_19,innode_2] 0
interdiction[source_3,innode_4] 0
interdiction[source_2,innode_7] 0
interdiction[sink_3,innode_8] 0
WCcheckFlow[source_1,sink_3] 39
WCcheckFlow[innode_1,sink_16] 1
WCcheckFlow[innode_6,sink_13] 13
WCcheckFlow[sink_13,sink_14] 12
WCcheckFlow[sink_14,sink_10] 11
WCcheckFlow[sink_25,sink_26] 0
WCcheckFlow[sink_26,sink_9] -2
WCcheckFlow[sink_9,sink_18] -3
WCcheckFlow[sink_26,sink_4] 1
WCcheckFlow[sink_4,sink_20] 0
WCcheckFlow[sink_18,sink_6] -4
WCcheckFlow[sink_25,innode_8] -36
WCcheckFlow[sink_6,sink_7] -7
WCcheckFlow[sink_6,sink_22] 2
WCcheckFlow[sink_7,sink_24] 3
WCcheckFlow[sink_22,sink_1] 1
WCcheckFlow[sink_24,sink_21] 2
WCcheckFlow[sink_21,sink_12] 1
WCcheckFlow[sink_7,sink_5] -11
WCcheckFlow[sink_5,sink_17] -12
WCcheckFlow[sink_17,sink_4] 0
WCcheckFlow[sink_17,sink_8] -13
WCcheckFlow[sink_3,sink_23] 1
WCcheckFlow[sink_8,sink_20] -14
WCcheckFlow[sink_25,sink_20] 15
WCcheckFlow[sink_25,sink_15] 6
WCcheckFlow[sink_15,sink_29] 4
WCcheckFlow[sink_29,sink_28] 1
WCcheckFlow[sink_29,sink_2] 0
WCcheckFlow[sink_2,sink_15] -1
WCcheckFlow[sink_29,innode_7] 2
WCcheckFlow[innode_4,sink_19] -4
WCcheckFlow[sink_19,innode_3] -5
WCcheckFlow[innode_4,innode_5] 2
WCcheckFlow[sink_27,innode_5] -1
WCcheckFlow[sink_27,sink_19] 0
WCcheckFlow[sink_10,sink_11] 3
WCcheckFlow[sink_10,innode_2] 1
WCcheckFlow[sink_10,innode_3] 6
WCcheckFlow[innode_6,sink_25] -14
WCcheckFlow[sink_11,innode_1] 2
WCcheckFlow[sink_19,innode_2] 0
WCcheckFlow[source_3,innode_4] -1
WCcheckFlow[source_2,innode_7] -1
WCcheckFlow[sink_3,innode_8] 37
